83 52 1 62 25 85 35 78 31 56 88 99 87 12 26 79 46 71 84 77 33 57 21 89 86 63 0 9 54 22 19 76 53 6 73 64 75 74 24 38 58 81 16 18 96 50 60 98 37 7 70 94 17 90 61 41 66 69 34 67 30 10 36 20 44 27 13 28 59 45 2 39 51 43 55 49 8 11 4 97 48 72 3 29 80 82 40 47 42 65 68 93 23 14 95 32 91 92 15 5 

